[runlim] version:		1.10
[runlim] time limit:		311040000 seconds
[runlim] real time limit:	600 seconds
[runlim] space limit:		7759 MB
[runlim] argv[0]:		python3
[runlim] argv[1]:		-u
[runlim] argv[2]:		cp.py
[runlim] argv[3]:		P10
[runlim] start:			Sun Mar 22 23:39:51 2026
[runlim] main pid:		29717
Reading dataset from data/P10.txt...
Greedy span: 308 (309-1)
--------------------------------
Starting CP Optimizer with Initial UB = 309...
Mô hình CP đã xây dựng xong, bắt đầu giải...
 ! --------------------------------------------------- CP Optimizer 22.1.1.0 --
 ! Minimization problem - 1035 variables, 133887 constraints
 ! Presolve      : 132906 extractables eliminated, 125798 constraints generated
 ! LogVerbosity         = Terse
 ! Initial process time : 1.83s (1.82s extraction + 0.02s propagation)
 !  . Log search space  : 6465.7 (before), 6465.7 (after)
 !  . Memory usage      : 107.4 MB (before), 107.4 MB (after)
 ! Using parallel search with 12 workers.
 ! ----------------------------------------------------------------------------
 !          Best Branches  Non-fixed    W       Branch decision
                        0       1035                 -
 + New bound is 309
 *           309      785  3.65s        1      (gap is 0.00%)
 ! ----------------------------------------------------------------------------
 ! Search completed, 1 solution found.
 ! Best objective         : 309 (optimal - effective tol. is 0)
 ! Best bound             : 309
 ! ----------------------------------------------------------------------------
 ! Number of branches     : 9005
 ! Number of fails        : 90
 ! Total memory usage     : 1.7 GB (1.7 GB CP Optimizer + 0.0 GB Concert)
 ! Time spent in solve    : 3.66s (1.84s engine + 1.82s extraction)
 ! Search speed (br. / s) : 4894.0
 ! ----------------------------------------------------------------------------
--------------------------------
Optimal span found: 308 (309-1)
Total time taken: 7.37s
CP solution is valid.
[runlim] end:			Sun Mar 22 23:39:58 2026
[runlim] status:		ok
[runlim] result:		0
[runlim] children:		58
[runlim] real:			7.91 seconds
[runlim] time:			23.97 seconds
[runlim] space:			2052.3 MB
[runlim] samples:		78
